(set-info :smt-lib-version 2.6)
(set-logic ALL)
(declare-sort Nat$ 0)
(declare-fun to_int$ (Nat$) Int)
(set-info :source |Generator: Rodin SMT Plug-in|)
(set-info :license "https://creativecommons.org/licenses/by-nc/4.0/")
(set-info :category "industrial")
(set-info :status unsat)
(declare-sort K 0)
(declare-sort N 0)
(declare-sort PN 0)
(declare-sort PNN 0)
(declare-sort PNZ 0)
(declare-fun MS (N Int PNZ) Bool)
(declare-fun MS0 (N N PNN) Bool)
(declare-fun MS1 (N PN) Bool)
(declare-fun b () PN)
(declare-fun c () PNN)
(declare-fun f () PNN)
(declare-fun g () PNN)
(declare-fun h () PNN)
(declare-fun ko () K)
(declare-fun lft () PN)
(declare-fun lt () PNN)
(declare-fun ltp () PNN)
(declare-fun n () K)
(declare-fun nil () N)
(declare-fun ok () K)
(declare-fun p () N)
(declare-fun q () N)
(declare-fun rht () PN)
(declare-fun rt () PNN)
(declare-fun rtp () PNN)
(declare-fun t () N)
(declare-fun ult () PNN)
(declare-fun urt () PNN)
(declare-fun vlt () PNN)
(declare-fun vrt () PNN)
(declare-fun wlt () PNN)
(declare-fun wrt () PNN)
(assert (forall ((x550 N) (x551 N)) (exists ((X PNN)) (and (MS0 x550 x551 X) (forall ((y1 N) (y2 N)) (=> (MS0 y1 y2 X) (and (= y1 x550) (= y2 x551))))))))
(assert (forall ((x552 N) (x553 Int)) (exists ((X0 PNZ)) (and (MS x552 x553 X0) (forall ((y3 N) (y4 Int)) (=> (MS y3 y4 X0) (and (= y3 x552) (= y4 x553))))))))
(assert (forall ((x554 N)) (exists ((X1 PN)) (and (MS1 x554 X1) (forall ((y5 N)) (=> (MS1 y5 X1) (= y5 x554)))))))
(assert (! (forall ((a Int)) (exists ((b0 Int) (f0 PNZ)) (and (forall ((x N) (x0 Int)) (=> (MS x x0 f0) (and (<= a x0) (<= x0 b0)))) (forall ((x1 N) (x2 Int) (x3 Int)) (=> (and (MS x1 x2 f0) (MS x1 x3 f0)) (= x2 x3))) (forall ((x4 N)) (exists ((x5 Int)) (MS x4 x5 f0))) (forall ((x6 Int) (x7 N) (x8 N)) (=> (and (MS x7 x6 f0) (MS x8 x6 f0)) (= x7 x8)))))) :named hyp1))
(assert (! (forall ((x9 N) (x10 N)) (=> (= x9 x10) (MS0 x9 x10 c))) :named hyp2))
(assert (! (forall ((x11 N) (x12 N)) (=> (exists ((x13 N)) (and (MS0 x11 x13 c) (MS0 x13 x12 g))) (MS0 x11 x12 c))) :named hyp3))
(assert (! (forall ((r PNN)) (=> (and (forall ((x14 N) (x15 N)) (=> (= x14 x15) (MS0 x14 x15 r))) (forall ((x16 N) (x17 N)) (=> (exists ((x18 N)) (and (MS0 x16 x18 r) (MS0 x18 x17 g))) (MS0 x16 x17 r)))) (forall ((x19 N) (x20 N)) (=> (MS0 x19 x20 c) (MS0 x19 x20 r))))) :named hyp4))
(assert (! (forall ((x21 N) (x22 N) (x23 N)) (=> (and (MS0 x21 x22 lt) (MS0 x21 x23 lt)) (= x22 x23))) :named hyp5))
(assert (! (forall ((x24 N) (x25 N) (x26 N)) (=> (and (MS0 x24 x25 rt) (MS0 x24 x26 rt)) (= x25 x26))) :named hyp6))
(assert (! (forall ((x27 N) (x28 N)) (= (MS0 x27 x28 g) (or (MS0 x27 x28 lt) (MS0 x27 x28 rt)))) :named hyp7))
(assert (! (and (forall ((x29 N) (x30 N) (x31 N)) (=> (and (MS0 x29 x30 ltp) (MS0 x29 x31 ltp)) (= x30 x31))) (forall ((x32 N)) (exists ((x33 N)) (MS0 x32 x33 ltp)))) :named hyp8))
(assert (! (and (forall ((x34 N) (x35 N) (x36 N)) (=> (and (MS0 x34 x35 rtp) (MS0 x34 x36 rtp)) (= x35 x36))) (forall ((x37 N)) (exists ((x38 N)) (MS0 x37 x38 rtp)))) :named hyp9))
(assert (! (forall ((x39 N) (x40 N)) (= (MS0 x39 x40 ltp) (or (and (= x40 nil) (not (exists ((x41 N)) (MS0 x39 x41 lt)))) (MS0 x39 x40 lt)))) :named hyp10))
(assert (! (forall ((x42 N) (x43 N)) (= (MS0 x42 x43 rtp) (or (and (= x43 nil) (not (exists ((x44 N)) (MS0 x42 x44 rt)))) (MS0 x42 x43 rt)))) :named hyp11))
(assert (! (MS1 t b) :named hyp12))
(assert (! (=> (forall ((x45 N)) (=> (exists ((x46 N)) (and (MS1 x46 b) (MS0 x46 x45 g))) (MS1 x45 b))) (forall ((x47 N)) (=> (exists ((x48 N)) (and (MS1 x48 b) (MS0 x48 x47 c))) (MS1 x47 b)))) :named hyp13))
(assert (! (forall ((x49 N)) (=> (MS1 x49 b) (exists ((x50 N)) (and (= x50 t) (MS0 x50 x49 c))))) :named hyp14))
(assert (! (MS1 p b) :named hyp15))
(assert (! (and (forall ((x51 N) (x52 N)) (=> (MS0 x51 x52 f) (and (MS1 x51 b) (not (= x51 t)) (MS1 x52 b) (not (= x52 p))))) (forall ((x53 N) (x54 N) (x55 N)) (=> (and (MS0 x53 x54 f) (MS0 x53 x55 f)) (= x54 x55))) (forall ((x56 N) (x57 N) (x58 N)) (=> (and (MS0 x57 x56 f) (MS0 x58 x56 f)) (= x57 x58)))) :named hyp16))
(assert (! (forall ((x59 N)) (= (or (exists ((x60 N)) (MS0 x59 x60 f)) (= x59 t)) (or (exists ((x61 N)) (MS0 x61 x59 f)) (= x59 p)))) :named hyp17))
(assert (! (forall ((s PN)) (=> (and (forall ((x62 N)) (=> (MS1 x62 s) (or (exists ((x63 N)) (MS0 x62 x63 f)) (= x62 t)))) (forall ((x64 N)) (=> (MS1 x64 s) (exists ((x65 N)) (and (MS1 x65 s) (MS0 x64 x65 f)))))) (forall ((x66 N)) (not (MS1 x66 s))))) :named hyp18))
(assert (! (forall ((x67 N) (x68 N)) (=> (MS0 x68 x67 f) (MS0 x67 x68 g))) :named hyp19))
(assert (! (forall ((x69 N)) (=> (exists ((x70 N)) (and (MS1 x70 b) (not (or (exists ((x71 N)) (MS0 x70 x71 f)) (= x70 t))) (MS0 x70 x69 g))) (MS1 x69 b))) :named hyp20))
(assert (! (=> (= n ok) (forall ((x72 N)) (=> (exists ((x73 N)) (and (MS1 x73 b) (MS0 x73 x72 g))) (MS1 x72 b)))) :named hyp21))
(assert (! (=> (= n ok) (= p t)) :named hyp22))
(assert (! (=> (= p t) (forall ((x74 N) (x75 N)) (not (MS0 x74 x75 f)))) :named hyp23))
(assert (! (=> (forall ((x76 N) (x77 N)) (not (MS0 x76 x77 f))) (= p t)) :named hyp24))
(assert (! (forall ((x78 N)) (= (or (MS1 x78 lft) (MS1 x78 rht)) (exists ((x79 N)) (MS0 x79 x78 f)))) :named hyp25))
(assert (! (forall ((x80 N)) (not (and (MS1 x80 lft) (MS1 x80 rht)))) :named hyp26))
(assert (! (forall ((x81 N) (x82 N)) (=> (and (MS0 x82 x81 f) (MS1 x81 lft)) (MS0 x81 x82 lt))) :named hyp27))
(assert (! (forall ((x83 N) (x84 N)) (=> (and (MS0 x84 x83 f) (MS1 x83 rht)) (MS0 x83 x84 rt))) :named hyp28))
(assert (! (=> (forall ((x85 N) (x86 N)) (not (MS0 x85 x86 f))) (and (forall ((x87 N)) (not (MS1 x87 lft))) (forall ((x88 N)) (not (MS1 x88 rht))))) :named hyp29))
(assert (! (=> (= n ok) (forall ((x89 N) (x90 N)) (not (MS0 x89 x90 f)))) :named hyp30))
(assert (! (=> (= n ok) (and (forall ((x91 N)) (not (MS1 x91 lft))) (forall ((x92 N)) (not (MS1 x92 rht))))) :named hyp31))
(assert (! (forall ((x93 N) (x94 N)) (= (MS0 x93 x94 ult) (or (and (MS0 x93 x94 lt) (not (MS1 x93 lft))) (and (MS0 x93 x94 f) (MS1 x93 lft))))) :named hyp32))
(assert (! (forall ((x95 N) (x96 N) (x97 N)) (=> (and (MS0 x95 x96 ult) (MS0 x95 x97 ult)) (= x96 x97))) :named hyp33))
(assert (! (forall ((x98 N) (x99 N)) (= (MS0 x98 x99 urt) (or (and (MS0 x98 x99 rt) (not (MS1 x98 rht))) (and (MS0 x98 x99 f) (MS1 x98 rht))))) :named hyp34))
(assert (! (forall ((x100 N) (x101 N) (x102 N)) (=> (and (MS0 x100 x101 urt) (MS0 x100 x102 urt)) (= x101 x102))) :named hyp35))
(assert (! (forall ((x103 N) (x104 N)) (= (MS0 x103 x104 h) (and (MS0 x103 x104 f) (= x103 p)))) :named hyp36))
(assert (! (=> (= n ok) (forall ((x105 N) (x106 N)) (= (MS0 x105 x106 ult) (MS0 x105 x106 lt)))) :named hyp37))
(assert (! (=> (= n ok) (forall ((x107 N) (x108 N)) (= (MS0 x107 x108 urt) (MS0 x107 x108 rt)))) :named hyp38))
(assert (! (forall ((x109 N) (x110 N)) (= (MS0 x109 x110 vlt) (or (and (MS0 x109 x110 ult) (not (exists ((x111 N)) (and (= x109 t) (= x111 nil) (MS1 x109 lft))))) (and (= x109 t) (= x110 nil) (MS1 x109 lft))))) :named hyp39))
(assert (! (forall ((x112 N) (x113 N) (x114 N)) (=> (and (MS0 x112 x113 vlt) (MS0 x112 x114 vlt)) (= x113 x114))) :named hyp40))
(assert (! (forall ((x115 N) (x116 N)) (= (MS0 x115 x116 vrt) (or (and (MS0 x115 x116 urt) (not (exists ((x117 N)) (and (= x115 t) (= x117 nil) (MS1 x115 rht))))) (and (= x115 t) (= x116 nil) (MS1 x115 rht))))) :named hyp41))
(assert (! (forall ((x118 N) (x119 N) (x120 N)) (=> (and (MS0 x118 x119 vrt) (MS0 x118 x120 vrt)) (= x119 x120))) :named hyp42))
(assert (! (=> (= p t) (= q nil)) :named hyp43))
(assert (! (=> (= n ok) (forall ((x121 N) (x122 N)) (= (MS0 x121 x122 vlt) (MS0 x121 x122 lt)))) :named hyp44))
(assert (! (=> (= n ok) (forall ((x123 N) (x124 N)) (= (MS0 x123 x124 vrt) (MS0 x123 x124 rt)))) :named hyp45))
(assert (! (and (forall ((x125 N) (x126 N) (x127 N)) (=> (and (MS0 x125 x126 wlt) (MS0 x125 x127 wlt)) (= x126 x127))) (forall ((x128 N)) (exists ((x129 N)) (MS0 x128 x129 wlt)))) :named hyp46))
(assert (! (and (forall ((x130 N) (x131 N) (x132 N)) (=> (and (MS0 x130 x131 wrt) (MS0 x130 x132 wrt)) (= x131 x132))) (forall ((x133 N)) (exists ((x134 N)) (MS0 x133 x134 wrt)))) :named hyp47))
(assert (! (forall ((x135 N) (x136 N)) (= (MS0 x135 x136 wlt) (or (and (= x136 nil) (not (exists ((x137 N)) (MS0 x135 x137 vlt)))) (MS0 x135 x136 vlt)))) :named hyp48))
(assert (! (forall ((x138 N) (x139 N)) (= (MS0 x138 x139 wrt) (or (and (= x139 nil) (not (exists ((x140 N)) (MS0 x138 x140 vrt)))) (MS0 x138 x139 vrt)))) :named hyp49))
(assert (! (=> (= n ok) (forall ((x141 N) (x142 N)) (= (MS0 x141 x142 wlt) (MS0 x141 x142 ltp)))) :named hyp50))
(assert (! (=> (= n ok) (forall ((x143 N) (x144 N)) (= (MS0 x143 x144 wrt) (MS0 x143 x144 rtp)))) :named hyp51))
(assert (! (forall ((x145 K)) (or (= x145 ok) (= x145 ko))) :named hyp52))
(assert (! (not (= ok ko)) :named hyp53))
(assert (! (not (or (exists ((x146 N)) (MS0 nil x146 lt)) (exists ((x147 N)) (MS0 nil x147 rt)))) :named hyp54))
(assert (! (not (or (exists ((x148 N)) (MS0 x148 nil lt)) (exists ((x149 N)) (MS0 x149 nil rt)))) :named hyp55))
(assert (! (or (forall ((x150 N)) (=> (exists ((x151 N)) (and (MS1 x151 b) (MS0 x151 x150 g))) (MS1 x150 b))) (and (not (forall ((x152 N)) (=> (exists ((x153 N)) (and (MS1 x153 b) (MS0 x153 x152 g))) (MS1 x152 b)))) (exists ((x154 N) (y N)) (and (MS0 x154 y g) (MS1 x154 b) (not (MS1 y b)))))) :named hyp56))
(assert (! (=> (not (= p t)) (exists ((x155 N)) (MS0 p x155 f))) :named hyp57))
(assert (! (=> (and (not (= p t)) (MS0 p t f)) (forall ((x156 N) (x157 N)) (= (MS0 x156 x157 f) (and (= x156 p) (= x157 t))))) :named hyp58))
(assert (! (=> (not (= p t)) (and (exists ((x158 N)) (MS0 p x158 f)) (forall ((x159 N) (x160 N) (x161 N)) (=> (and (MS0 x159 x160 f) (MS0 x159 x161 f)) (= x160 x161))))) :named hyp59))
(assert (! (or (and (= n ko) (not (forall ((x162 N)) (=> (exists ((x163 N)) (and (= x163 p) (MS0 x163 x162 g))) (MS1 x162 b)))) (exists ((y0 N)) (and (MS0 p y0 g) (not (MS1 y0 b))))) (and (= n ko) (forall ((x164 N)) (=> (exists ((x165 N)) (and (= x165 p) (MS0 x165 x164 g))) (MS1 x164 b))) (not (= p t))) (and (= n ko) (forall ((x166 N)) (=> (exists ((x167 N)) (and (= x167 p) (MS0 x167 x166 g))) (MS1 x166 b))) (= p t)) (= n ok)) :named hyp60))
(assert (! (or (and (= n ko) (not (forall ((x168 N)) (=> (exists ((x169 N)) (and (= x169 p) (MS0 x169 x168 lt))) (MS1 x168 b))))) (and (= n ko) (forall ((x170 N)) (=> (exists ((x171 N)) (and (= x171 p) (MS0 x171 x170 lt))) (MS1 x170 b))) (not (forall ((x172 N)) (=> (exists ((x173 N)) (and (= x173 p) (MS0 x173 x172 rt))) (MS1 x172 b))))) (and (= n ko) (forall ((x174 N)) (=> (exists ((x175 N)) (and (= x175 p) (MS0 x175 x174 lt))) (MS1 x174 b))) (forall ((x176 N)) (=> (exists ((x177 N)) (and (= x177 p) (MS0 x177 x176 rt))) (MS1 x176 b))) (not (= p t))) (and (= n ko) (forall ((x178 N)) (=> (exists ((x179 N)) (and (= x179 p) (MS0 x179 x178 lt))) (MS1 x178 b))) (forall ((x180 N)) (=> (exists ((x181 N)) (and (= x181 p) (MS0 x181 x180 rt))) (MS1 x180 b))) (= p t)) (= n ok)) :named hyp61))
(assert (! (not (MS1 p lft)) :named hyp62))
(assert (! (not (MS1 p rht)) :named hyp63))
(assert (! (or (and (= n ko) (not (forall ((x182 N)) (=> (exists ((x183 N)) (and (= x183 p) (MS0 x183 x182 lt))) (MS1 x182 b))))) (and (= n ko) (forall ((x184 N)) (=> (exists ((x185 N)) (and (= x185 p) (MS0 x185 x184 lt))) (MS1 x184 b))) (not (forall ((x186 N)) (=> (exists ((x187 N)) (and (= x187 p) (MS0 x187 x186 rt))) (MS1 x186 b))))) (and (= n ko) (forall ((x188 N)) (=> (exists ((x189 N)) (and (= x189 p) (MS0 x189 x188 lt))) (MS1 x188 b))) (forall ((x190 N)) (=> (exists ((x191 N)) (and (= x191 p) (MS0 x191 x190 rt))) (MS1 x190 b))) (not (= p t)) (exists ((x192 N)) (and (MS0 p x192 f) (MS1 x192 lft)))) (and (= n ko) (forall ((x193 N)) (=> (exists ((x194 N)) (and (= x194 p) (MS0 x194 x193 lt))) (MS1 x193 b))) (forall ((x195 N)) (=> (exists ((x196 N)) (and (= x196 p) (MS0 x196 x195 rt))) (MS1 x195 b))) (not (= p t)) (exists ((x197 N)) (and (MS0 p x197 f) (MS1 x197 rht)))) (and (= n ko) (forall ((x198 N)) (=> (exists ((x199 N)) (and (= x199 p) (MS0 x199 x198 lt))) (MS1 x198 b))) (forall ((x200 N)) (=> (exists ((x201 N)) (and (= x201 p) (MS0 x201 x200 rt))) (MS1 x200 b))) (= p t)) (= n ok)) :named hyp64))
(assert (! (or (and (= n ko) (not (forall ((x202 N)) (=> (exists ((x203 N)) (and (= x203 p) (MS0 x203 x202 lt))) (MS1 x202 b))))) (and (= n ko) (forall ((x204 N)) (=> (exists ((x205 N)) (and (= x205 p) (MS0 x205 x204 lt))) (MS1 x204 b))) (not (forall ((x206 N)) (=> (exists ((x207 N)) (and (= x207 p) (MS0 x207 x206 rt))) (MS1 x206 b))))) (and (=> (and (= n ko) (forall ((x208 N)) (=> (exists ((x209 N)) (and (= x209 p) (MS0 x209 x208 lt))) (MS1 x208 b))) (forall ((x210 N)) (=> (exists ((x211 N)) (and (= x211 p) (MS0 x211 x210 rt))) (MS1 x210 b))) (not (= p t))) (and (exists ((x212 N)) (MS0 p x212 f)) (forall ((x213 N) (x214 N) (x215 N)) (=> (and (MS0 x213 x214 f) (MS0 x213 x215 f)) (= x214 x215))))) (or (and (= n ko) (forall ((x216 N)) (=> (exists ((x217 N)) (and (= x217 p) (MS0 x217 x216 lt))) (MS1 x216 b))) (forall ((x218 N)) (=> (exists ((x219 N)) (and (= x219 p) (MS0 x219 x218 rt))) (MS1 x218 b))) (not (= p t)) (exists ((x220 N)) (and (MS0 p x220 f) (MS1 x220 lft)))) (=> (and (= n ko) (forall ((x221 N)) (=> (exists ((x222 N)) (and (= x222 p) (MS0 x222 x221 lt))) (MS1 x221 b))) (forall ((x223 N)) (=> (exists ((x224 N)) (and (= x224 p) (MS0 x224 x223 rt))) (MS1 x223 b))) (not (= p t))) (and (exists ((x225 N)) (MS0 p x225 f)) (forall ((x226 N) (x227 N) (x228 N)) (=> (and (MS0 x226 x227 f) (MS0 x226 x228 f)) (= x227 x228)))))))) :named hyp65))
(assert (! (=> (not (= p t)) (or (exists ((x229 N)) (and (MS0 p x229 h) (MS1 x229 lft))) (exists ((x230 N)) (and (MS0 p x230 h) (MS1 x230 rht))))) :named hyp66))
(assert (! (=> (not (= p t)) (and (exists ((x231 N)) (MS0 p x231 h)) (forall ((x232 N) (x233 N) (x234 N)) (=> (and (MS0 x232 x233 h) (MS0 x232 x234 h)) (= x233 x234))))) :named hyp67))
(assert (! (or (and (= n ko) (not (forall ((x235 N)) (=> (exists ((x236 N)) (and (= x236 p) (MS0 x236 x235 ult))) (MS1 x235 b))))) (and (= n ko) (forall ((x237 N)) (=> (exists ((x238 N)) (and (= x238 p) (MS0 x238 x237 ult))) (MS1 x237 b))) (not (forall ((x239 N)) (=> (exists ((x240 N)) (and (= x240 p) (MS0 x240 x239 urt))) (MS1 x239 b))))) (and (= n ko) (forall ((x241 N)) (=> (exists ((x242 N)) (and (= x242 p) (MS0 x242 x241 ult))) (MS1 x241 b))) (forall ((x243 N)) (=> (exists ((x244 N)) (and (= x244 p) (MS0 x244 x243 urt))) (MS1 x243 b))) (not (= p t)) (exists ((x245 N)) (and (MS0 p x245 f) (MS1 x245 lft)))) (and (= n ko) (forall ((x246 N)) (=> (exists ((x247 N)) (and (= x247 p) (MS0 x247 x246 ult))) (MS1 x246 b))) (forall ((x248 N)) (=> (exists ((x249 N)) (and (= x249 p) (MS0 x249 x248 urt))) (MS1 x248 b))) (not (= p t)) (exists ((x250 N)) (and (MS0 p x250 f) (MS1 x250 rht)))) (and (= n ko) (forall ((x251 N)) (=> (exists ((x252 N)) (and (= x252 p) (MS0 x252 x251 ult))) (MS1 x251 b))) (forall ((x253 N)) (=> (exists ((x254 N)) (and (= x254 p) (MS0 x254 x253 urt))) (MS1 x253 b))) (= p t)) (= n ok)) :named hyp68))
(assert (! (or (and (= n ko) (not (forall ((x255 N)) (=> (exists ((x256 N)) (and (= x256 p) (MS0 x256 x255 ult))) (MS1 x255 b))))) (and (= n ko) (forall ((x257 N)) (=> (exists ((x258 N)) (and (= x258 p) (MS0 x258 x257 ult))) (MS1 x257 b))) (not (forall ((x259 N)) (=> (exists ((x260 N)) (and (= x260 p) (MS0 x260 x259 urt))) (MS1 x259 b))))) (and (=> (and (= n ko) (forall ((x261 N)) (=> (exists ((x262 N)) (and (= x262 p) (MS0 x262 x261 ult))) (MS1 x261 b))) (forall ((x263 N)) (=> (exists ((x264 N)) (and (= x264 p) (MS0 x264 x263 urt))) (MS1 x263 b))) (not (= p t))) (and (exists ((x265 N)) (MS0 p x265 f)) (forall ((x266 N) (x267 N) (x268 N)) (=> (and (MS0 x266 x267 f) (MS0 x266 x268 f)) (= x267 x268))))) (or (and (= n ko) (forall ((x269 N)) (=> (exists ((x270 N)) (and (= x270 p) (MS0 x270 x269 ult))) (MS1 x269 b))) (forall ((x271 N)) (=> (exists ((x272 N)) (and (= x272 p) (MS0 x272 x271 urt))) (MS1 x271 b))) (not (= p t)) (exists ((x273 N)) (and (MS0 p x273 f) (MS1 x273 lft)))) (=> (and (= n ko) (forall ((x274 N)) (=> (exists ((x275 N)) (and (= x275 p) (MS0 x275 x274 ult))) (MS1 x274 b))) (forall ((x276 N)) (=> (exists ((x277 N)) (and (= x277 p) (MS0 x277 x276 urt))) (MS1 x276 b))) (not (= p t))) (and (exists ((x278 N)) (MS0 p x278 f)) (forall ((x279 N) (x280 N) (x281 N)) (=> (and (MS0 x279 x280 f) (MS0 x279 x281 f)) (= x280 x281)))))))) :named hyp69))
(assert (! (=> (not (= p t)) (MS0 p q h)) :named hyp70))
(assert (! (=> (not (= p t)) (or (MS1 q lft) (MS1 q rht))) :named hyp71))
(assert (! (or (and (= n ko) (not (forall ((x282 N)) (=> (exists ((x283 N)) (and (= x283 p) (MS0 x283 x282 vlt))) (MS1 x282 b))))) (and (= n ko) (forall ((x284 N)) (=> (exists ((x285 N)) (and (= x285 p) (MS0 x285 x284 vlt))) (MS1 x284 b))) (not (forall ((x286 N)) (=> (exists ((x287 N)) (and (= x287 p) (MS0 x287 x286 vrt))) (MS1 x286 b))))) (and (= n ko) (forall ((x288 N)) (=> (exists ((x289 N)) (and (= x289 p) (MS0 x289 x288 vlt))) (MS1 x288 b))) (forall ((x290 N)) (=> (exists ((x291 N)) (and (= x291 p) (MS0 x291 x290 vrt))) (MS1 x290 b))) (not (= p t)) (exists ((x292 N)) (and (MS0 p x292 h) (MS1 x292 lft)))) (and (= n ko) (forall ((x293 N)) (=> (exists ((x294 N)) (and (= x294 p) (MS0 x294 x293 vlt))) (MS1 x293 b))) (forall ((x295 N)) (=> (exists ((x296 N)) (and (= x296 p) (MS0 x296 x295 vrt))) (MS1 x295 b))) (not (= p t)) (exists ((x297 N)) (and (MS0 p x297 h) (MS1 x297 rht)))) (and (= n ko) (forall ((x298 N)) (=> (exists ((x299 N)) (and (= x299 p) (MS0 x299 x298 vlt))) (MS1 x298 b))) (forall ((x300 N)) (=> (exists ((x301 N)) (and (= x301 p) (MS0 x301 x300 vrt))) (MS1 x300 b))) (= p t)) (= n ok)) :named hyp72))
(assert (! (or (and (= n ko) (not (forall ((x302 N)) (=> (exists ((x303 N)) (and (= x303 p) (MS0 x303 x302 vlt))) (MS1 x302 b))))) (and (= n ko) (forall ((x304 N)) (=> (exists ((x305 N)) (and (= x305 p) (MS0 x305 x304 vlt))) (MS1 x304 b))) (not (forall ((x306 N)) (=> (exists ((x307 N)) (and (= x307 p) (MS0 x307 x306 vrt))) (MS1 x306 b))))) (and (=> (and (= n ko) (forall ((x308 N)) (=> (exists ((x309 N)) (and (= x309 p) (MS0 x309 x308 vlt))) (MS1 x308 b))) (forall ((x310 N)) (=> (exists ((x311 N)) (and (= x311 p) (MS0 x311 x310 vrt))) (MS1 x310 b))) (not (= p t))) (and (exists ((x312 N)) (MS0 p x312 h)) (forall ((x313 N) (x314 N) (x315 N)) (=> (and (MS0 x313 x314 h) (MS0 x313 x315 h)) (= x314 x315))))) (or (and (= n ko) (forall ((x316 N)) (=> (exists ((x317 N)) (and (= x317 p) (MS0 x317 x316 vlt))) (MS1 x316 b))) (forall ((x318 N)) (=> (exists ((x319 N)) (and (= x319 p) (MS0 x319 x318 vrt))) (MS1 x318 b))) (not (= p t)) (exists ((x320 N)) (and (MS0 p x320 h) (MS1 x320 lft)))) (=> (and (= n ko) (forall ((x321 N)) (=> (exists ((x322 N)) (and (= x322 p) (MS0 x322 x321 vlt))) (MS1 x321 b))) (forall ((x323 N)) (=> (exists ((x324 N)) (and (= x324 p) (MS0 x324 x323 vrt))) (MS1 x323 b))) (not (= p t))) (and (exists ((x325 N)) (MS0 p x325 h)) (forall ((x326 N) (x327 N) (x328 N)) (=> (and (MS0 x326 x327 h) (MS0 x326 x328 h)) (= x327 x328)))))))) :named hyp73))
(assert (! (forall ((x329 N)) (=> (and (exists ((x330 N)) (MS0 x329 x330 vrt)) (not (= x329 t))) (not (MS0 x329 nil wrt)))) :named hyp74))
(assert (! (forall ((x331 N)) (=> (and (exists ((x332 N)) (MS0 x331 x332 vlt)) (not (= x331 t))) (not (MS0 x331 nil wlt)))) :named hyp75))
(assert (! (forall ((x333 N)) (=> (not (MS0 x333 nil wlt)) (exists ((x334 N)) (MS0 x333 x334 vlt)))) :named hyp76))
(assert (! (forall ((x335 N)) (=> (not (MS0 x335 nil wrt)) (exists ((x336 N)) (MS0 x335 x336 vrt)))) :named hyp77))
(assert (! (and (forall ((x337 N) (x338 N) (x339 N)) (=> (and (or (and (= x338 nil) (not (exists ((x340 N)) (MS0 x337 x340 vlt)))) (MS0 x337 x338 vlt)) (or (and (= x339 nil) (not (exists ((x341 N)) (MS0 x337 x341 vlt)))) (MS0 x337 x339 vlt))) (= x338 x339))) (forall ((x342 N)) (or (exists ((x343 N)) (and (= x343 nil) (not (exists ((x344 N)) (MS0 x342 x344 vlt))))) (exists ((x345 N)) (MS0 x342 x345 vlt))))) :named hyp78))
(assert (! (=> (= n ok) (forall ((x346 N) (x347 N)) (= (or (and (= x347 nil) (not (exists ((x348 N)) (MS0 x346 x348 vlt)))) (MS0 x346 x347 vlt)) (MS0 x346 x347 ltp)))) :named hyp79))
(assert (! (forall ((x349 N)) (=> (and (exists ((x350 N)) (MS0 x349 x350 vlt)) (not (= x349 t))) (not (or (not (exists ((x351 N)) (MS0 x349 x351 vlt))) (MS0 x349 nil vlt))))) :named hyp80))
(assert (! (forall ((x352 N)) (=> (not (or (not (exists ((x353 N)) (MS0 x352 x353 vlt))) (MS0 x352 nil vlt))) (exists ((x354 N)) (MS0 x352 x354 vlt)))) :named hyp81))
(assert (! (and (forall ((x355 N) (x356 N) (x357 N)) (=> (and (or (and (= x356 nil) (not (exists ((x358 N)) (MS0 x355 x358 vrt)))) (MS0 x355 x356 vrt)) (or (and (= x357 nil) (not (exists ((x359 N)) (MS0 x355 x359 vrt)))) (MS0 x355 x357 vrt))) (= x356 x357))) (forall ((x360 N)) (or (exists ((x361 N)) (and (= x361 nil) (not (exists ((x362 N)) (MS0 x360 x362 vrt))))) (exists ((x363 N)) (MS0 x360 x363 vrt))))) :named hyp82))
(assert (! (=> (= n ok) (forall ((x364 N) (x365 N)) (= (or (and (= x365 nil) (not (exists ((x366 N)) (MS0 x364 x366 vrt)))) (MS0 x364 x365 vrt)) (MS0 x364 x365 rtp)))) :named hyp83))
(assert (! (forall ((x367 N)) (=> (and (exists ((x368 N)) (MS0 x367 x368 vrt)) (not (= x367 t))) (not (or (not (exists ((x369 N)) (MS0 x367 x369 vrt))) (MS0 x367 nil vrt))))) :named hyp84))
(assert (! (forall ((x370 N)) (=> (not (or (not (exists ((x371 N)) (MS0 x370 x371 vrt))) (MS0 x370 nil vrt))) (exists ((x372 N)) (MS0 x370 x372 vrt)))) :named hyp85))
(assert (! (=> (= n ok) (forall ((x373 N) (x374 N)) (= (or (and (= x374 nil) (not (exists ((x375 N)) (MS0 x373 x375 vlt)))) (MS0 x373 x374 vlt)) (or (and (= x374 nil) (not (exists ((x376 N)) (MS0 x373 x376 lt)))) (MS0 x373 x374 lt))))) :named hyp86))
(assert (! (=> (= n ok) (forall ((x377 N) (x378 N)) (= (or (and (= x378 nil) (not (exists ((x379 N)) (MS0 x377 x379 vrt)))) (MS0 x377 x378 vrt)) (or (and (= x378 nil) (not (exists ((x380 N)) (MS0 x377 x380 rt)))) (MS0 x377 x378 rt))))) :named hyp87))
(assert (! (not (or (and (= n ko) (not (or (not (exists ((x381 N)) (MS0 p x381 vlt))) (MS0 p nil vlt))) (not (exists ((x382 N)) (and (or (and (= x382 nil) (not (exists ((x383 N)) (MS0 p x383 vlt)))) (MS0 p x382 vlt)) (MS1 x382 b))))) (and (=> (= n ko) (and (or (exists ((x384 N)) (and (= x384 nil) (not (exists ((x385 N)) (MS0 p x385 vlt))))) (exists ((x386 N)) (MS0 p x386 vlt))) (forall ((x387 N) (x388 N) (x389 N)) (=> (and (or (and (= x388 nil) (not (exists ((x390 N)) (MS0 x387 x390 vlt)))) (MS0 x387 x388 vlt)) (or (and (= x389 nil) (not (exists ((x391 N)) (MS0 x387 x391 vlt)))) (MS0 x387 x389 vlt))) (= x388 x389))) (=> (not (or (not (exists ((x392 N)) (MS0 p x392 vlt))) (MS0 p nil vlt))) (and (or (exists ((x393 N)) (and (= x393 nil) (not (exists ((x394 N)) (MS0 p x394 vlt))))) (exists ((x395 N)) (MS0 p x395 vlt))) (forall ((x396 N) (x397 N) (x398 N)) (=> (and (or (and (= x397 nil) (not (exists ((x399 N)) (MS0 x396 x399 vlt)))) (MS0 x396 x397 vlt)) (or (and (= x398 nil) (not (exists ((x400 N)) (MS0 x396 x400 vlt)))) (MS0 x396 x398 vlt))) (= x397 x398))))) (=> (=> (not (or (not (exists ((x401 N)) (MS0 p x401 vlt))) (MS0 p nil vlt))) (exists ((x402 N)) (and (or (and (= x402 nil) (not (exists ((x403 N)) (MS0 p x403 vlt)))) (MS0 p x402 vlt)) (MS1 x402 b)))) (and (or (exists ((x404 N)) (and (= x404 nil) (not (exists ((x405 N)) (MS0 p x405 vrt))))) (exists ((x406 N)) (MS0 p x406 vrt))) (forall ((x407 N) (x408 N) (x409 N)) (=> (and (or (and (= x408 nil) (not (exists ((x410 N)) (MS0 x407 x410 vrt)))) (MS0 x407 x408 vrt)) (or (and (= x409 nil) (not (exists ((x411 N)) (MS0 x407 x411 vrt)))) (MS0 x407 x409 vrt))) (= x408 x409))) (=> (not (or (not (exists ((x412 N)) (MS0 p x412 vrt))) (MS0 p nil vrt))) (and (or (exists ((x413 N)) (and (= x413 nil) (not (exists ((x414 N)) (MS0 p x414 vrt))))) (exists ((x415 N)) (MS0 p x415 vrt))) (forall ((x416 N) (x417 N) (x418 N)) (=> (and (or (and (= x417 nil) (not (exists ((x419 N)) (MS0 x416 x419 vrt)))) (MS0 x416 x417 vrt)) (or (and (= x418 nil) (not (exists ((x420 N)) (MS0 x416 x420 vrt)))) (MS0 x416 x418 vrt))) (= x417 x418))))))))) (or (and (= n ko) (=> (not (or (not (exists ((x421 N)) (MS0 p x421 vlt))) (MS0 p nil vlt))) (exists ((x422 N)) (and (or (and (= x422 nil) (not (exists ((x423 N)) (MS0 p x423 vlt)))) (MS0 p x422 vlt)) (MS1 x422 b)))) (not (or (not (exists ((x424 N)) (MS0 p x424 vrt))) (MS0 p nil vrt))) (not (exists ((x425 N)) (and (or (and (= x425 nil) (not (exists ((x426 N)) (MS0 p x426 vrt)))) (MS0 p x425 vrt)) (MS1 x425 b))))) (and (=> (= n ko) (and (or (exists ((x427 N)) (and (= x427 nil) (not (exists ((x428 N)) (MS0 p x428 vlt))))) (exists ((x429 N)) (MS0 p x429 vlt))) (forall ((x430 N) (x431 N) (x432 N)) (=> (and (or (and (= x431 nil) (not (exists ((x433 N)) (MS0 x430 x433 vlt)))) (MS0 x430 x431 vlt)) (or (and (= x432 nil) (not (exists ((x434 N)) (MS0 x430 x434 vlt)))) (MS0 x430 x432 vlt))) (= x431 x432))) (=> (not (or (not (exists ((x435 N)) (MS0 p x435 vlt))) (MS0 p nil vlt))) (and (or (exists ((x436 N)) (and (= x436 nil) (not (exists ((x437 N)) (MS0 p x437 vlt))))) (exists ((x438 N)) (MS0 p x438 vlt))) (forall ((x439 N) (x440 N) (x441 N)) (=> (and (or (and (= x440 nil) (not (exists ((x442 N)) (MS0 x439 x442 vlt)))) (MS0 x439 x440 vlt)) (or (and (= x441 nil) (not (exists ((x443 N)) (MS0 x439 x443 vlt)))) (MS0 x439 x441 vlt))) (= x440 x441))))) (=> (=> (not (or (not (exists ((x444 N)) (MS0 p x444 vlt))) (MS0 p nil vlt))) (exists ((x445 N)) (and (or (and (= x445 nil) (not (exists ((x446 N)) (MS0 p x446 vlt)))) (MS0 p x445 vlt)) (MS1 x445 b)))) (and (or (exists ((x447 N)) (and (= x447 nil) (not (exists ((x448 N)) (MS0 p x448 vrt))))) (exists ((x449 N)) (MS0 p x449 vrt))) (forall ((x450 N) (x451 N) (x452 N)) (=> (and (or (and (= x451 nil) (not (exists ((x453 N)) (MS0 x450 x453 vrt)))) (MS0 x450 x451 vrt)) (or (and (= x452 nil) (not (exists ((x454 N)) (MS0 x450 x454 vrt)))) (MS0 x450 x452 vrt))) (= x451 x452))) (=> (not (or (not (exists ((x455 N)) (MS0 p x455 vrt))) (MS0 p nil vrt))) (and (or (exists ((x456 N)) (and (= x456 nil) (not (exists ((x457 N)) (MS0 p x457 vrt))))) (exists ((x458 N)) (MS0 p x458 vrt))) (forall ((x459 N) (x460 N) (x461 N)) (=> (and (or (and (= x460 nil) (not (exists ((x462 N)) (MS0 x459 x462 vrt)))) (MS0 x459 x460 vrt)) (or (and (= x461 nil) (not (exists ((x463 N)) (MS0 x459 x463 vrt)))) (MS0 x459 x461 vrt))) (= x460 x461))))))))) (or (and (= n ko) (=> (not (or (not (exists ((x464 N)) (MS0 p x464 vlt))) (MS0 p nil vlt))) (exists ((x465 N)) (and (or (and (= x465 nil) (not (exists ((x466 N)) (MS0 p x466 vlt)))) (MS0 p x465 vlt)) (MS1 x465 b)))) (=> (not (or (not (exists ((x467 N)) (MS0 p x467 vrt))) (MS0 p nil vrt))) (exists ((x468 N)) (and (or (and (= x468 nil) (not (exists ((x469 N)) (MS0 p x469 vrt)))) (MS0 p x468 vrt)) (MS1 x468 b)))) (not (= p t)) (MS1 q lft)) (and (=> (= n ko) (and (or (exists ((x470 N)) (and (= x470 nil) (not (exists ((x471 N)) (MS0 p x471 vlt))))) (exists ((x472 N)) (MS0 p x472 vlt))) (forall ((x473 N) (x474 N) (x475 N)) (=> (and (or (and (= x474 nil) (not (exists ((x476 N)) (MS0 x473 x476 vlt)))) (MS0 x473 x474 vlt)) (or (and (= x475 nil) (not (exists ((x477 N)) (MS0 x473 x477 vlt)))) (MS0 x473 x475 vlt))) (= x474 x475))) (=> (not (or (not (exists ((x478 N)) (MS0 p x478 vlt))) (MS0 p nil vlt))) (and (or (exists ((x479 N)) (and (= x479 nil) (not (exists ((x480 N)) (MS0 p x480 vlt))))) (exists ((x481 N)) (MS0 p x481 vlt))) (forall ((x482 N) (x483 N) (x484 N)) (=> (and (or (and (= x483 nil) (not (exists ((x485 N)) (MS0 x482 x485 vlt)))) (MS0 x482 x483 vlt)) (or (and (= x484 nil) (not (exists ((x486 N)) (MS0 x482 x486 vlt)))) (MS0 x482 x484 vlt))) (= x483 x484))))) (=> (=> (not (or (not (exists ((x487 N)) (MS0 p x487 vlt))) (MS0 p nil vlt))) (exists ((x488 N)) (and (or (and (= x488 nil) (not (exists ((x489 N)) (MS0 p x489 vlt)))) (MS0 p x488 vlt)) (MS1 x488 b)))) (and (or (exists ((x490 N)) (and (= x490 nil) (not (exists ((x491 N)) (MS0 p x491 vrt))))) (exists ((x492 N)) (MS0 p x492 vrt))) (forall ((x493 N) (x494 N) (x495 N)) (=> (and (or (and (= x494 nil) (not (exists ((x496 N)) (MS0 x493 x496 vrt)))) (MS0 x493 x494 vrt)) (or (and (= x495 nil) (not (exists ((x497 N)) (MS0 x493 x497 vrt)))) (MS0 x493 x495 vrt))) (= x494 x495))) (=> (not (or (not (exists ((x498 N)) (MS0 p x498 vrt))) (MS0 p nil vrt))) (and (or (exists ((x499 N)) (and (= x499 nil) (not (exists ((x500 N)) (MS0 p x500 vrt))))) (exists ((x501 N)) (MS0 p x501 vrt))) (forall ((x502 N) (x503 N) (x504 N)) (=> (and (or (and (= x503 nil) (not (exists ((x505 N)) (MS0 x502 x505 vrt)))) (MS0 x502 x503 vrt)) (or (and (= x504 nil) (not (exists ((x506 N)) (MS0 x502 x506 vrt)))) (MS0 x502 x504 vrt))) (= x503 x504))))))))) (or (and (= n ko) (=> (not (or (not (exists ((x507 N)) (MS0 p x507 vlt))) (MS0 p nil vlt))) (exists ((x508 N)) (and (or (and (= x508 nil) (not (exists ((x509 N)) (MS0 p x509 vlt)))) (MS0 p x508 vlt)) (MS1 x508 b)))) (=> (not (or (not (exists ((x510 N)) (MS0 p x510 vrt))) (MS0 p nil vrt))) (exists ((x511 N)) (and (or (and (= x511 nil) (not (exists ((x512 N)) (MS0 p x512 vrt)))) (MS0 p x511 vrt)) (MS1 x511 b)))) (not (= p t)) (MS1 q rht)) (=> (= n ko) (and (or (exists ((x513 N)) (and (= x513 nil) (not (exists ((x514 N)) (MS0 p x514 vlt))))) (exists ((x515 N)) (MS0 p x515 vlt))) (forall ((x516 N) (x517 N) (x518 N)) (=> (and (or (and (= x517 nil) (not (exists ((x519 N)) (MS0 x516 x519 vlt)))) (MS0 x516 x517 vlt)) (or (and (= x518 nil) (not (exists ((x520 N)) (MS0 x516 x520 vlt)))) (MS0 x516 x518 vlt))) (= x517 x518))) (=> (not (or (not (exists ((x521 N)) (MS0 p x521 vlt))) (MS0 p nil vlt))) (and (or (exists ((x522 N)) (and (= x522 nil) (not (exists ((x523 N)) (MS0 p x523 vlt))))) (exists ((x524 N)) (MS0 p x524 vlt))) (forall ((x525 N) (x526 N) (x527 N)) (=> (and (or (and (= x526 nil) (not (exists ((x528 N)) (MS0 x525 x528 vlt)))) (MS0 x525 x526 vlt)) (or (and (= x527 nil) (not (exists ((x529 N)) (MS0 x525 x529 vlt)))) (MS0 x525 x527 vlt))) (= x526 x527))))) (=> (=> (not (or (not (exists ((x530 N)) (MS0 p x530 vlt))) (MS0 p nil vlt))) (exists ((x531 N)) (and (or (and (= x531 nil) (not (exists ((x532 N)) (MS0 p x532 vlt)))) (MS0 p x531 vlt)) (MS1 x531 b)))) (and (or (exists ((x533 N)) (and (= x533 nil) (not (exists ((x534 N)) (MS0 p x534 vrt))))) (exists ((x535 N)) (MS0 p x535 vrt))) (forall ((x536 N) (x537 N) (x538 N)) (=> (and (or (and (= x537 nil) (not (exists ((x539 N)) (MS0 x536 x539 vrt)))) (MS0 x536 x537 vrt)) (or (and (= x538 nil) (not (exists ((x540 N)) (MS0 x536 x540 vrt)))) (MS0 x536 x538 vrt))) (= x537 x538))) (=> (not (or (not (exists ((x541 N)) (MS0 p x541 vrt))) (MS0 p nil vrt))) (and (or (exists ((x542 N)) (and (= x542 nil) (not (exists ((x543 N)) (MS0 p x543 vrt))))) (exists ((x544 N)) (MS0 p x544 vrt))) (forall ((x545 N) (x546 N) (x547 N)) (=> (and (or (and (= x546 nil) (not (exists ((x548 N)) (MS0 x545 x548 vrt)))) (MS0 x545 x546 vrt)) (or (and (= x547 nil) (not (exists ((x549 N)) (MS0 x545 x549 vrt)))) (MS0 x545 x547 vrt))) (= x546 x547))))))))))))))))) :named goal))
(check-sat)
(exit)
